
<<< setup



Le degré maximum du graphe est : 48


Le nombre d'arrètes du graphe simple correspondant est : 476

<<< generate

 ! ----------------------------------------------------------------------------
 ! Minimization problem - 50 variables, 629 constraints
 ! Preprocessing : 476 extractables eliminated, 140 constraints generated
 ! Initial process time : 0,00s (0,00s extraction + 0,00s propagation)
 !  . Log search space  : 328,1 (before), 249,3 (after)
 !  . Memory usage      : 949,3 Kb (before), 981,4 Kb (after)
 !  . Variables fixed   : 7
 ! ----------------------------------------------------------------------------
 !   Branches  Non-fixed                Branch decision                   Best
        1 000         29                  c(12) !=    7                       
 *      1 067      0,03s                         -                          12
 *      1 192      0,04s                  c(46)  =    3                      9
        2 000         28                  c(11)  =    6                      9
 *      2 370      0,07s                  c(30)  =    7                      8
 *      2 624      0,09s                  c(32)  =    5                      7
 ! Search terminated, replaying optimal solution
 ! ----------------------------------------------------------------------------
 ! Solution status        : Terminated normally, optimal found (tol. = 0)
 ! Number of branches     : 2 624
 ! Number of fails        : 1 246
 ! Total memory usage     : 1,7 Mb (1,1 Mb CP Optimizer + 0,5 Mb Concert)
 ! Time spent in solve    : 0,09s (0,09s engine + 0,00s extraction)
 ! Search speed (br. / s) : 29 155,6
 ! ----------------------------------------------------------------------------

<<< solve


OBJECTIVE: 7
coloration : [1 2 3 4 5 6 7 3 4 5 6 7 1 2 5 6 7 1 2 3 4 7 1 2 3 4 5 6 2 3 4 5 6 7 1 4 5
     6 7 1 2 3 6 7 1 2 3 4 5]
la matrice d'adjacence était :
 [[0 2 2 2 2 2 2 2 2 0 0 0 0 0 2 0 2 0 0 0 0 2 0 0 2 0 0 0 2 0 0 0 2 0 0 2 0
         0 0 0 2 0 2 0 0 0 0 0 2]
         [2 0 2 2 2 2 2 2 2 2 0 0 0 0 0 2 0 2 0 0 0 0 2 0 0 2 0 0 0 2 0 0 0
         2 0 0 2 0 0 0 0 2 0 2 0 0 0 0 0]
         [2 2 0 2 2 2 2 0 2 2 2 0 0 0 2 0 2 0 2 0 0 0 0 2 0 0 2 0 0 0 2 0 0
         0 2 0 0 2 0 0 0 0 0 0 2 0 0 0 0]
         [2 2 2 0 2 2 2 0 0 2 2 2 0 0 0 2 0 2 0 2 0 2 0 0 2 0 0 2 0 0 0 2 0
         0 0 0 0 0 2 0 0 0 0 0 0 2 0 0 0]
         [2 2 2 2 0 2 2 0 0 0 2 2 2 0 0 0 2 0 2 0 2 0 2 0 0 2 0 0 2 0 0 0 2
         0 0 0 0 0 0 2 0 0 0 0 0 0 2 0 0]
         [2 2 2 2 2 0 2 0 0 0 0 2 2 2 0 0 0 2 0 2 0 0 0 2 0 0 2 0 0 2 0 0 0
         2 0 2 0 0 0 0 2 0 0 0 0 0 0 2 0]
         [2 2 2 2 2 2 0 0 0 0 0 0 2 2 0 0 0 0 2 0 2 0 0 0 2 0 0 2 0 0 2 0 0
         0 2 0 2 0 0 0 0 2 2 0 0 0 0 0 2]
         [2 2 0 0 0 0 0 0 2 2 2 2 2 2 2 2 0 0 0 0 0 2 0 2 0 0 0 0 2 0 0 2 0
         0 0 2 0 0 0 2 0 0 2 0 0 0 0 2 0]
         [2 2 2 0 0 0 0 2 0 2 2 2 2 2 2 2 2 0 0 0 0 0 2 0 2 0 0 0 0 2 0 0 2
         0 0 0 2 0 0 0 2 0 0 2 0 0 0 0 2]
         [0 2 2 2 0 0 0 2 2 0 2 2 2 2 0 2 2 2 0 0 0 2 0 2 0 2 0 0 0 0 2 0 0
         2 0 0 0 2 0 0 0 2 0 0 2 0 0 0 0]
         [0 0 2 2 2 0 0 2 2 2 0 2 2 2 0 0 2 2 2 0 0 0 2 0 2 0 2 0 2 0 0 2 0
         0 2 0 0 0 2 0 0 0 0 0 0 2 0 0 0]
         [0 0 0 2 2 2 0 2 2 2 2 0 2 2 0 0 0 2 2 2 0 0 0 2 0 2 0 2 0 2 0 0 2
         0 0 2 0 0 0 2 0 0 0 0 0 0 2 0 0]
         [0 0 0 0 2 2 2 2 2 2 2 2 0 2 0 0 0 0 2 2 2 0 0 0 2 0 2 0 0 0 2 0 0
         2 0 0 2 0 0 0 2 0 2 0 0 0 0 2 0]
         [0 0 0 0 0 2 2 2 2 2 2 2 2 0 0 0 0 0 0 2 2 0 0 0 0 2 0 2 0 0 0 2 0
         0 2 0 0 2 0 0 0 2 0 2 0 0 0 0 2]
         [2 0 2 0 0 0 0 2 2 0 0 0 0 0 0 2 2 2 2 2 2 2 2 0 0 0 0 0 2 0 2 0 0
         0 0 2 0 0 2 0 0 0 2 0 0 0 2 0 0]
         [0 2 0 2 0 0 0 2 2 2 0 0 0 0 2 0 2 2 2 2 2 2 2 2 0 0 0 0 0 2 0 2 0
         0 0 0 2 0 0 2 0 0 0 2 0 0 0 2 0]
         [2 0 2 0 2 0 0 0 2 2 2 0 0 0 2 2 0 2 2 2 2 0 2 2 2 0 0 0 2 0 2 0 2
         0 0 0 0 2 0 0 2 0 0 0 2 0 0 0 2]
         [0 2 0 2 0 2 0 0 0 2 2 2 0 0 2 2 2 0 2 2 2 0 0 2 2 2 0 0 0 2 0 2 0
         2 0 2 0 0 2 0 0 2 0 0 0 2 0 0 0]
         [0 0 2 0 2 0 2 0 0 0 2 2 2 0 2 2 2 2 0 2 2 0 0 0 2 2 2 0 0 0 2 0 2
         0 2 0 2 0 0 2 0 0 2 0 0 0 2 0 0]
         [0 0 0 2 0 2 0 0 0 0 0 2 2 2 2 2 2 2 2 0 2 0 0 0 0 2 2 2 0 0 0 2 0
         2 0 0 0 2 0 0 2 0 0 2 0 0 0 2 0]
         [0 0 0 0 2 0 2 0 0 0 0 0 2 2 2 2 2 2 2 2 0 0 0 0 0 0 2 2 0 0 0 0 2
         0 2 0 0 0 2 0 0 2 0 0 2 0 0 0 2]
         [2 0 0 2 0 0 0 2 0 2 0 0 0 0 2 2 0 0 0 0 0 0 2 2 2 2 2 2 2 2 0 0 0
         0 0 2 0 2 0 0 0 0 2 0 0 2 0 0 0]
         [0 2 0 0 2 0 0 0 2 0 2 0 0 0 2 2 2 0 0 0 0 2 0 2 2 2 2 2 2 2 2 0 0
         0 0 0 2 0 2 0 0 0 0 2 0 0 2 0 0]
         [0 0 2 0 0 2 0 2 0 2 0 2 0 0 0 2 2 2 0 0 0 2 2 0 2 2 2 2 0 2 2 2 0
         0 0 2 0 2 0 2 0 0 0 0 2 0 0 2 0]
         [2 0 0 2 0 0 2 0 2 0 2 0 2 0 0 0 2 2 2 0 0 2 2 2 0 2 2 2 0 0 2 2 2
         0 0 0 2 0 2 0 2 0 2 0 0 2 0 0 2]
         [0 2 0 0 2 0 0 0 0 2 0 2 0 2 0 0 0 2 2 2 0 2 2 2 2 0 2 2 0 0 0 2 2
         2 0 0 0 2 0 2 0 2 0 2 0 0 2 0 0]
         [0 0 2 0 0 2 0 0 0 0 2 0 2 0 0 0 0 0 2 2 2 2 2 2 2 2 0 2 0 0 0 0 2
         2 2 0 0 0 2 0 2 0 0 0 2 0 0 2 0]
         [0 0 0 2 0 0 2 0 0 0 0 2 0 2 0 0 0 0 0 2 2 2 2 2 2 2 2 0 0 0 0 0 0
         2 2 0 0 0 0 2 0 2 0 0 0 2 0 0 2]
         [2 0 0 0 2 0 0 2 0 0 2 0 0 0 2 0 2 0 0 0 0 2 2 0 0 0 0 0 0 2 2 2 2
         2 2 2 2 0 0 0 0 0 2 0 2 0 0 0 0]
         [0 2 0 0 0 2 0 0 2 0 0 2 0 0 0 2 0 2 0 0 0 2 2 2 0 0 0 0 2 0 2 2 2
         2 2 2 2 2 0 0 0 0 0 2 0 2 0 0 0]
         [0 0 2 0 0 0 2 0 0 2 0 0 2 0 2 0 2 0 2 0 0 0 2 2 2 0 0 0 2 2 0 2 2
         2 2 0 2 2 2 0 0 0 2 0 2 0 2 0 0]
         [0 0 0 2 0 0 0 2 0 0 2 0 0 2 0 2 0 2 0 2 0 0 0 2 2 2 0 0 2 2 2 0 2
         2 2 0 0 2 2 2 0 0 0 2 0 2 0 2 0]
         [2 0 0 0 2 0 0 0 2 0 0 2 0 0 0 0 2 0 2 0 2 0 0 0 2 2 2 0 2 2 2 2 0
         2 2 0 0 0 2 2 2 0 0 0 2 0 2 0 2]
         [0 2 0 0 0 2 0 0 0 2 0 0 2 0 0 0 0 2 0 2 0 0 0 0 0 2 2 2 2 2 2 2 2
         0 2 0 0 0 0 2 2 2 0 0 0 2 0 2 0]
         [0 0 2 0 0 0 2 0 0 0 2 0 0 2 0 0 0 0 2 0 2 0 0 0 0 0 2 2 2 2 2 2 2
         2 0 0 0 0 0 0 2 2 0 0 0 0 2 0 2]
         [2 0 0 0 0 2 0 2 0 0 0 2 0 0 2 0 0 2 0 0 0 2 0 2 0 0 0 0 2 2 0 0 0
         0 0 0 2 2 2 2 2 2 2 2 0 0 0 0 0]
         [0 2 0 0 0 0 2 0 2 0 0 0 2 0 0 2 0 0 2 0 0 0 2 0 2 0 0 0 2 2 2 0 0
         0 0 2 0 2 2 2 2 2 2 2 2 0 0 0 0]
         [0 0 2 0 0 0 0 0 0 2 0 0 0 2 0 0 2 0 0 2 0 2 0 2 0 2 0 0 0 2 2 2 0
         0 0 2 2 0 2 2 2 2 0 2 2 2 0 0 0]
         [0 0 0 2 0 0 0 0 0 0 2 0 0 0 2 0 0 2 0 0 2 0 2 0 2 0 2 0 0 0 2 2 2
         0 0 2 2 2 0 2 2 2 0 0 2 2 2 0 0]
         [0 0 0 0 2 0 0 2 0 0 0 2 0 0 0 2 0 0 2 0 0 0 0 2 0 2 0 2 0 0 0 2 2
         2 0 2 2 2 2 0 2 2 0 0 0 2 2 2 0]
         [2 0 0 0 0 2 0 0 2 0 0 0 2 0 0 0 2 0 0 2 0 0 0 0 2 0 2 0 0 0 0 0 2
         2 2 2 2 2 2 2 0 2 0 0 0 0 2 2 2]
         [0 2 0 0 0 0 2 0 0 2 0 0 0 2 0 0 0 2 0 0 2 0 0 0 0 2 0 2 0 0 0 0 0
         2 2 2 2 2 2 2 2 0 0 0 0 0 0 2 2]
         [2 0 0 0 0 0 2 2 0 0 0 0 2 0 2 0 0 0 2 0 0 2 0 0 2 0 0 0 2 0 2 0 0
         0 0 2 2 0 0 0 0 0 0 2 2 2 2 2 2]
         [0 2 0 0 0 0 0 0 2 0 0 0 0 2 0 2 0 0 0 2 0 0 2 0 0 2 0 0 0 2 0 2 0
         0 0 2 2 2 0 0 0 0 2 0 2 2 2 2 2]
         [0 0 2 0 0 0 0 0 0 2 0 0 0 0 0 0 2 0 0 0 2 0 0 2 0 0 2 0 2 0 2 0 2
         0 0 0 2 2 2 0 0 0 2 2 0 2 2 2 2]
         [0 0 0 2 0 0 0 0 0 0 2 0 0 0 0 0 0 2 0 0 0 2 0 0 2 0 0 2 0 2 0 2 0
         2 0 0 0 2 2 2 0 0 2 2 2 0 2 2 2]
         [0 0 0 0 2 0 0 0 0 0 0 2 0 0 2 0 0 0 2 0 0 0 2 0 0 2 0 0 0 0 2 0 2
         0 2 0 0 0 2 2 2 0 2 2 2 2 0 2 2]
         [0 0 0 0 0 2 0 2 0 0 0 0 2 0 0 2 0 0 0 2 0 0 0 2 0 0 2 0 0 0 0 2 0
         2 0 0 0 0 0 2 2 2 2 2 2 2 2 0 2]
         [2 0 0 0 0 0 2 0 2 0 0 0 0 2 0 0 2 0 0 0 2 0 0 0 2 0 0 2 0 0 0 0 2
         0 2 0 0 0 0 0 2 2 2 2 2 2 2 2 0]]

<<< post process


<<< done

